12 145 65 17 34 45 196 19 20 153 75 7 193 183 150 124 170 173 49 115 91 5 134 61 123 142 79 116 175 106 199 194 167 160 26 176 83 84 126 155 62 54 21 50 31 82 11 1 18 70 85 40 103 195 108 147 143 135 81 178 182 156 38 181 36 192 6 60 52 184 151 42 157 99 27 74 179 35 58 130 64 16 8 51 44 112 41 46 59 198 159 77 164 0 172 14 22 15 128 73 28 174 104 87 140 78 117 154 24 72 66 39 9 149 162 43 119 68 163 121 177 94 109 180 166 32 148 55 122 63 89 76 131 189 69 33 102 133 67 107 97 80 88 168 23 3 30 95 25 137 197 152 105 139 93 125 118 47 165 101 185 13 138 129 90 169 120 37 92 113 191 57 110 158 10 111 186 161 146 86 136 188 127 71 100 4 141 53 2 132 98 48 96 56 144 29 187 114 171 190 

